50
3 67 91 72 
2 82 17 
2 105 102 
5 110 16 77 48 85 
2 94 32 
2 21 92 
2 13 36 
2 75 63 
2 6 86 
2 84 20 
2 52 104 
2 47 93 
2 76 68 
2 103 25 
2 2 37 
2 44 107 
2 61 87 
2 14 96 
2 58 49 
2 57 53 
2 83 116 
2 79 74 
2 108 26 
2 34 69 
2 19 33 
2 97 4 
2 106 23 
2 111 30 
2 50 55 
2 5 71 
3 56 24 38 
2 54 80 
2 119 46 
2 65 15 
2 70 51 
2 45 66 
2 12 39 
2 60 118 
3 59 41 98 
2 40 42 
2 1 9 
2 78 113 
3 35 11 10 
4 88 7 117 27 
4 90 112 100 62 
4 115 3 64 29 
4 89 18 28 95 
4 120 101 31 73 
5 81 43 109 22 114 
2 99 8 
